<instance format="XCSP3" type="CSP">
  <variables>
    <var id="x0"> 2 10 14 </var>
    <var id="x1"> 4 10 14 </var>
    <var id="x2"> 2 4 </var>
    <var id="x3"> 2 11 14 </var>
    <var id="x4"> 6 10 14 </var>
    <var id="x5"> 2 6 10 </var>
    <var id="x6"> 2 4 6 12 </var>
    <var id="x7"> 4 7 10 13 </var>
    <var id="x8"> 2 13 </var>
    <var id="x9"> 2 4 7 10 </var>
    <var id="x10"> 4 6 9 </var>
    <var id="x11"> 2 6 10 13 </var>
    <var id="x12"> 2 6 7 9 13 </var>
    <var id="x13"> 2 4 6 7 13 </var>
    <var id="x14"> 1..3 8 13 </var>
    <var id="x15"> 2 13 </var>
    <var id="x16"> 4 7 8 </var>
    <var id="x17"> 1 4 </var>
    <var id="x18"> 2 3 8 13 </var>
    <var id="x19"> 2 7 8 13 </var>
    <var id="x20"> 1 2 4 7 13 </var>
    <var id="x21"> 2 4 13 14 </var>
    <var id="x22"> 2 13 14 </var>
    <var id="x23"> 2 4 5 13 </var>
    <var id="x24"> 2 6 13 14 </var>
    <var id="x25"> 2 4 5 7 14 </var>
    <var id="x26"> 2 6 7 13 14 </var>
    <var id="x27"> 2 4..7 13 14 </var>
    <var id="x28"> 4 7 13 14 </var>
    <var id="x29"> 2 11 13 14 </var>
    <var as="x29" id="x30"/>
    <var id="x31"> 4 7 11 </var>
    <var id="x32"> 4 11 12 14 </var>
    <var id="x33"> 2 4 7 12 </var>
    <var id="x34"> 2 7 13 14 </var>
    <var id="x35"> 0 9 10 13 14 </var>
    <var id="x36"> 1 11 13 14 </var>
    <var id="x37"> 9 13 </var>
    <var id="x38"> 9..11 </var>
    <var id="x39"> 10 11 14 </var>
    <var id="x40"> 10 13 </var>
    <var id="x41"> 0 1 </var>
    <var id="x42"> 1..3 13 </var>
    <var id="x43"> 2 3 10 13 </var>
    <var id="x44"> 1 8 10 13 </var>
    <var id="x45"> 1..3 8 13 </var>
    <var id="x46"> 3 10 13 </var>
    <var id="x47"> 2 8 13 </var>
    <var id="x48"> 1 2 5 13 </var>
    <var id="x49"> 1 4 11 14 </var>
    <var id="x50"> 4 5 8 9 </var>
    <var id="x51"> 9 11 14 </var>
    <var id="x52"> 1 4 9 11 14 </var>
    <var id="x53"> 5 8 </var>
    <var id="x54"> 1 4 </var>
    <var id="x55"> 1 4 5 14 </var>
    <var id="x56"> 2 3 13 14 </var>
    <var id="x57"> 2 13 14 </var>
    <var id="x58"> 0 3 6 10 13 14 </var>
    <var id="x59"> 2 6 13 14 </var>
    <var id="x60"> 10 </var>
    <var id="x61"> 2 10 14 </var>
    <var id="x62"> 2 6 13 14 </var>
    <var id="x63"> 1..4 </var>
    <var id="x64"> 0 2 3 9 </var>
    <var id="x65"> 1 4 </var>
    <var id="x66"> 2..5 9 </var>
    <var id="x67"> 1 2 5 9 </var>
    <var id="x68"> 4 5 9 </var>
    <var id="x69"> 0..2 4 </var>
    <var id="x70"> 7 8 13 14 </var>
    <var id="x71"> 2 9 11 13 14 </var>
    <var id="x72"> 3 7 13 14 </var>
    <var id="x73"> 2 7 11 14 </var>
    <var id="x74"> 9 11 14 </var>
    <var id="x75"> 2 7 </var>
    <var id="x76"> 2 7..9 13 14 </var>
    <var id="x77"> 2 7 13 14 </var>
    <var id="x78"> 1 2 11 13 14 </var>
    <var id="x79"> 2 9 13 14 </var>
    <var id="x80"> 1 2 9 11 13 14 </var>
    <var id="x81"> 13 14 </var>
    <var id="x82"> 2 9 11..14 </var>
    <var id="x83"> 1 9 11 12 14 </var>
    <var id="x84"> 1 2 13 14 </var>
    <var id="x85"> 2 3 13 14 </var>
    <var id="x86"> 2 3 13 14 </var>
    <var id="x87"> 2 3 13 14 </var>
    <var id="x88"> 2 3 5 13 </var>
    <var id="x89"> 5 7 </var>
    <var id="x90"> 2 6 7 </var>
    <var id="x91"> 2 5..7 13 14 </var>
    <var id="x92"> 4 8 10 14 </var>
    <var id="x93"> 9 11 14 </var>
    <var id="x94"> 6 10 14 </var>
    <var id="x95"> 6 9 11 14 </var>
    <var id="x96"> 4 8..11 </var>
    <var id="x97"> 4 10 11 14 </var>
    <var id="x98"> 6 8 10 </var>
    <var id="x99"> 13 14 </var>
    <var id="x100"> 5 8 13 </var>
    <var id="x101"> 6 7 13 14 </var>
    <var id="x102"> 6 13 14 </var>
    <var id="x103"> 5 7 14 </var>
    <var id="x104"> 1 6 14 </var>
    <var id="x105"> 5 6 8 13 </var>
  </variables>
  <constraints>
    <group>
      <allDifferent> %... </allDifferent>
      <args> x0 x1 x2 x3 x4 x5 x6 </args>
      <args> x7 x8 x9 x10 x11 x12 x13 </args>
      <args> x14 x15 x16 x17 x18 x19 x20 </args>
      <args> x21 x22 x23 x24 x25 x26 x27 </args>
      <args> x28 x29 x30 x31 x32 x33 x34 </args>
      <args> x35 x36 x37 x38 x39 x40 x41 </args>
      <args> x42 x43 x44 x45 x46 x47 x48 </args>
      <args> x49 x50 x51 x52 x53 x54 x55 </args>
      <args> x56 x57 x58 x59 x60 x61 x62 </args>
      <args> x63 x64 x65 x66 x67 x68 x69 </args>
      <args> x70 x71 x72 x73 x74 x75 x76 x77 </args>
      <args> x78 x79 x80 x81 x82 x83 x84 </args>
      <args> x85 x86 x87 x88 x89 x90 x91 </args>
      <args> x92 x93 x94 x95 x96 x97 x98 </args>
      <args> x99 x100 x101 x102 x103 x104 x105 </args>
      <args> x21 x42 x49 x56 x63 x78 x85 </args>
      <args> x0 x35 x43 x64 x79 x86 x99 </args>
      <args> x1 x7 x28 x44 x65 x70 x92 </args>
      <args> x8 x14 x22 x29 x36 x45 x87 </args>
      <args> x2 x23 x37 x50 x66 x88 x100 </args>
      <args> x3 x30 x57 x67 x71 x80 x93 </args>
      <args> x4 x46 x58 x72 x81 x94 x101 </args>
      <args> x15 x24 x51 x59 x82 x95 x102 </args>
      <args> x16 x31 x38 x60 x68 x89 x96 </args>
      <args> x9 x25 x39 x61 x73 x97 x103 </args>
      <args> x10 x17 x32 x52 x74 x83 x104 </args>
      <args> x5 x11 x18 x40 x53 x98 x105 </args>
      <args> x6 x33 x41 x54 x69 x75 x90 </args>
      <args> x12 x19 x26 x34 x47 x62 x76 </args>
      <args> x13 x20 x27 x48 x55 x77 x84 x91 </args>
    </group>
  </constraints>
</instance>

